%nprocshared=16
%mem=16GB
%chk=ferro_gauche.chk
# opt b3lyp/aug-cc-pvdz

Title Card Required

0 2
 C                  5.09172500   -0.57035300    0.00201200
 C                  4.41978800   -1.07760100    1.15725800
 H                  4.67254600   -0.85847600    2.18992100
 C                  3.33597200   -1.89791400    0.71312100
 H                  2.62313000   -2.41269300    1.34964500
 C                  4.42285900   -1.07542600   -1.15596700
 H                  4.67836600   -0.85438400   -2.18754500
 C                  3.33787300   -1.89657100   -0.71625300
 H                  2.62673700   -2.41016400   -1.35563700
 C                  2.86513700    1.98350200    0.71447500
 C                  1.77943300    1.16264300    1.15217100
 H                  1.52602000    0.93908500    2.18451300
 C                  1.10079200    0.64809800   -0.00003300
 C                  2.86512400    1.98351200   -0.71455200
 H                  3.58075000    2.49099200   -1.35363800
 C                  1.77941400    1.16265900   -1.15223900
 H                  1.52598800    0.93911800   -2.18458100
 Fe                 3.10003000    0.04472200   -0.00003500
 H                  5.94266400    0.10352600    0.00376900
 H                  3.58077200    2.49096600    1.35356400
 C                 -0.13048400   -0.21511400   -0.00003200
 C                 -1.43453800    0.60413400    0.00005200
 H                 -0.11670400   -0.87287300    0.88186900
 H                 -0.11676500   -0.87278400   -0.88200000
 C                 -2.69076500   -0.27222500    0.00010100
 H                 -1.44369200    1.26518800    0.88067800
 H                 -1.44379600    1.26519300   -0.88056900
 C                 -3.99432800    0.53421900    0.00009000
 H                 -2.67263400   -0.93441300   -0.88103500
 H                 -2.67261700   -0.93434600    0.88128700
 H                 -4.01171500    1.19525000    0.88179000
 H                 -4.01166000    1.19531700   -0.88156100
 C                 -5.24910200   -0.34856800    0.00002000
 C                 -6.53719800    0.47417400    0.00007700
 H                 -5.23595100   -1.00597600    0.88289400
 H                 -5.23593800   -1.00584400   -0.88295300
 H                 -6.58573800    1.11064400    0.89230000
 H                 -6.58567600    1.11086800   -0.89199000
 S                 -8.00224300   -0.66254000   -0.00011100

